NAME 
ROWS
 N  OBJ
 L  R0      
 L  R1      
 L  R2      
 E  R3      
 E  R4      
 E  R5      
 E  R6      
 E  R7      
 E  R8      
 E  R9      
 E  R10     
 E  R11     
 E  R12     
COLUMNS
    MARKER    'MARKER'                 'INTORG'
    I0(10)    OBJ       -121
    I0(10)    R0        2
    I0(10)    R1        1
    I0(10)    R2        149
    I0(10)    R3        8
    I0(10)    R4        16
    I0(10)    R5        14
    I0(10)    R6        12
    I0(10)    R7        -1
    I0(10)    R8        9
    I0(10)    R12       1
    I1(8)     OBJ       68
    I1(8)     R0        -99
    I1(8)     R1        38
    I1(8)     R2        60
    I1(8)     R3        4
    I1(8)     R4        3
    I1(8)     R6        15
    I1(8)     R8        15
    I1(8)     R12       1
    I2(8)     OBJ       -191
    I2(8)     R0        48
    I2(8)     R1        21
    I2(8)     R2        157
    I2(8)     R4        5
    I2(8)     R6        4
    I2(8)     R7        13
    I2(8)     R8        15
    I2(8)     R12       1
    I3(8)     OBJ       -122
    I3(8)     R0        187
    I3(8)     R1        88
    I3(8)     R2        -143
    I3(8)     R3        10
    I3(8)     R5        7
    I3(8)     R6        11
    I3(8)     R7        8
    I3(8)     R12       1
    I4(7)     OBJ       57
    I4(7)     R0        187
    I4(7)     R1        -170
    I4(7)     R2        157
    I4(7)     R4        13
    I4(7)     R7        3
    I4(7)     R8        11
    I4(7)     R12       1
    I5(6)     OBJ       -104
    I5(6)     R0        177
    I5(6)     R1        -182
    I5(6)     R2        75
    I5(6)     R3        14
    I5(6)     R6        16
    I5(6)     R12       1
    MARKER    'MARKER'                 'INTEND'
    C6(8)     OBJ       -2
    C6(8)     R0        9
    C6(8)     R1        2
    C6(8)     R2        -8
    C6(8)     R5        7
    C6(8)     R6        2
    C6(8)     R7        16
    C6(8)     R8        3
    C6(8)     R9        7
    C7(6)     OBJ       -6
    C7(6)     R0        6
    C7(6)     R1        -9
    C7(6)     R2        -8
    C7(6)     R3        14
    C7(6)     R4        15
    C7(6)     R10       19
    C8(10)    OBJ       8
    C8(10)    R0        -10
    C8(10)    R1        4
    C8(10)    R2        2
    C8(10)    R3        -1
    C8(10)    R4        19
    C8(10)    R6        19
    C8(10)    R7        17
    C8(10)    R8        1
    C8(10)    R9        10
    C8(10)    R11       5
    C9(9)     OBJ       -10
    C9(9)     R0        -1
    C9(9)     R1        -8
    C9(9)     R2        -3
    C9(9)     R3        15
    C9(9)     R6        4
    C9(9)     R8        13
    C9(9)     R9        4
    C9(9)     R10       9
    C9(9)     R11       10
    C10(1)    R3        1
    C11(1)    R4        1
    C12(1)    R5        1
    C13(1)    R6        1
    C14(1)    R7        1
    C15(1)    R8        1
    C16(1)    R9        1
    C17(1)    R10       1
    C18(1)    R11       1
    C19(1)    R12       1
RHS
    RHS1      R0        1.1684821428571429e+02
    RHS1      R1        1.5025755494505493e+01
    RHS1      R2        2.8259821428571428e+02
    RHS1      R3        54
    RHS1      R4        78
    RHS1      R5        73
    RHS1      R6        90
    RHS1      R7        55
    RHS1      R8        68
    RHS1      R9        79
    RHS1      R10       74
    RHS1      R11       88
    RHS1      R12       2
BOUNDS
 UP BND1      I0(10)    2
 UP BND1      I1(8)     2
 UP BND1      I2(8)     2
 UP BND1      I3(8)     2
 UP BND1      I4(7)     2
 UP BND1      I5(6)     2
ENDATA
